
Gurobi 10.0.1 (linux64) logging started Sat 12 Aug 2023 05:45:09 PM CDT

Set parameter LogFile to value "/home/dlcole3/graph_abstraction/plasmoexamples/SHP_serial/SHP_reserve_requirements/gurobi_logs/logfile15.log"
Set parameter NodefileStart to value 0.0005
Set parameter TimeLimit to value 36000
Gurobi Optimizer version 10.0.1 build v10.0.1rc0 (linux64)

CPU model: Intel(R) Xeon(R) CPU E5-2698 v4 @ 2.20GHz, instruction set [SSE2|AVX|AVX2]
Thread count: 40 physical cores, 80 logical processors, using up to 8 threads


Warning: excessive time spent in model updates.
Consider calling update less frequently.

Optimize a model with 1105538 rows, 641709 columns and 4644125 nonzeros
Model fingerprint: 0x08596f52
Variable types: 599982 continuous, 41727 integer (41727 binary)
Coefficient statistics:
  Matrix range     [5e-02, 2e+04]
  Objective range  [2e-01, 8e+04]
  Bounds range     [5e-02, 2e+04]
  RHS range        [2e-03, 7e+03]
Presolve removed 263163 rows and 109725 columns (presolve time = 5s) ...
Presolve removed 276866 rows and 116443 columns (presolve time = 10s) ...
Presolve removed 278962 rows and 119590 columns (presolve time = 15s) ...
Presolve removed 284754 rows and 124143 columns (presolve time = 20s) ...
Presolve removed 291587 rows and 124344 columns (presolve time = 25s) ...
Presolve removed 292327 rows and 125060 columns (presolve time = 30s) ...
Presolve removed 292337 rows and 125080 columns (presolve time = 35s) ...
Presolve removed 292367 rows and 125110 columns (presolve time = 40s) ...
Presolve removed 292667 rows and 125130 columns (presolve time = 45s) ...
Sparsify removed 205791 nonzeros (5%)
Presolve removed 292667 rows and 123956 columns
Presolve time: 49.33s
Presolved: 812871 rows, 517753 columns, 3973444 nonzeros
Variable types: 484105 continuous, 33648 integer (33590 binary)

Deterministic concurrent LP optimizer: primal simplex, dual simplex, and barrier
Showing barrier log only...

Root barrier log...

Elapsed ordering time = 5s
Elapsed ordering time = 18s
Elapsed ordering time = 21s
Elapsed ordering time = 25s
Elapsed ordering time = 32s
Elapsed ordering time = 35s
Elapsed ordering time = 40s
Elapsed ordering time = 44s
Elapsed ordering time = 45s
Elapsed ordering time = 50s
Elapsed ordering time = 55s
Elapsed ordering time = 58s
Elapsed ordering time = 61s
Elapsed ordering time = 65s
Elapsed ordering time = 70s
Ordering time: 70.67s

Barrier statistics:
 Dense cols : 217
 AA' NZ     : 2.370e+07
 Factor NZ  : 3.647e+08 (roughly 3.5 GB of memory)
 Factor Ops : 1.834e+12 (roughly 14 seconds per iteration)
 Threads    : 5

                  Objective                Residual
Iter       Primal          Dual         Primal    Dual     Compl     Time
   0  -2.22120567e+11 -1.80348160e+13  1.22e+04 8.44e+03  1.15e+08   144s
   1  -1.55104679e+11 -1.26330296e+13  8.70e+03 3.78e+06  7.02e+07   153s
   2  -7.59892243e+10 -8.01668450e+12  4.48e+03 5.17e+05  3.40e+07   168s
   3  -1.86267253e+10 -3.05329312e+12  1.34e+03 3.27e+00  9.51e+06   185s
   4  -3.31102921e+09 -1.37565425e+12  5.02e+02 8.86e-01  3.36e+06   201s
   5   4.61577864e+09 -6.68835772e+11  1.03e+02 5.94e-01  8.45e+05   218s
   6   5.90472652e+09 -2.62966016e+11  3.50e+01 9.35e-02  2.62e+05   236s
   7   5.41953392e+09 -8.49871655e+10  1.13e+01 3.30e-02  7.26e+04   254s
   8   3.14201008e+09 -2.88871480e+10  2.62e+00 1.55e-02  2.11e+04   272s
   9   7.63210847e+08 -6.38042038e+09  5.64e-01 3.09e-03  4.40e+03   291s
  10   9.51850069e+07 -5.42838730e+08  3.21e-03 3.43e-04  3.72e+02   311s
  11   7.89317884e+07 -2.17049067e+08  3.58e-04 9.94e-05  1.72e+02   330s
  12   7.11051026e+07 -1.35246178e+07  1.49e-04 2.54e-04  4.93e+01   349s
  13   6.48154219e+07  1.91855947e+07  8.29e-05 4.38e-04  2.66e+01   367s
  14   5.99736330e+07  3.31161334e+07  4.65e-05 1.95e-04  1.56e+01   387s
  15   5.67258377e+07  3.96979718e+07  2.73e-05 1.27e-04  9.92e+00   406s
  16   5.48658123e+07  4.57886535e+07  1.85e-05 6.90e-05  5.29e+00   423s
  17   5.37436207e+07  4.74344488e+07  1.29e-05 5.56e-05  3.67e+00   439s
  18   5.30379128e+07  4.77289213e+07  9.90e-06 5.00e-05  3.09e+00   455s
  19   5.25598076e+07  4.83712022e+07  7.68e-06 3.90e-05  2.44e+00   469s
  20   5.21357856e+07  4.91245094e+07  5.72e-06 2.87e-05  1.75e+00   485s
  21   5.18098831e+07  4.96918850e+07  4.25e-06 1.98e-05  1.23e+00   500s
  22   5.15981078e+07  5.00032636e+07  3.23e-06 1.49e-05  9.29e-01   516s
  23   5.14056727e+07  5.04371199e+07  2.34e-06 6.96e-06  5.64e-01   532s
  24   5.12422717e+07  5.06159435e+07  1.62e-06 4.24e-06  3.65e-01   549s
  25   5.11128043e+07  5.06911340e+07  1.05e-06 2.98e-06  2.46e-01   567s
  26   5.10537335e+07  5.07695652e+07  1.05e-06 1.64e-06  1.66e-01   587s
  27   5.09932564e+07  5.07980229e+07  1.70e-06 1.13e-06  1.14e-01   607s
  28   5.09550109e+07  5.08325445e+07  3.40e-06 5.13e-07  7.13e-02   631s
  29   5.09284055e+07  5.08494130e+07  3.17e-06 2.29e-07  4.60e-02   657s
  30   5.08928856e+07  5.08588775e+07  1.58e-06 6.33e-08  1.98e-02   688s
  31   5.08767203e+07  5.08615111e+07  8.49e-07 1.84e-08  8.86e-03   716s
  32   5.08726879e+07  5.08624669e+07  7.48e-07 7.06e-09  5.95e-03   743s
  33   5.08681060e+07  5.08626786e+07  7.37e-07 1.04e-08  3.16e-03   775s
  34   5.08656810e+07  5.08629095e+07  4.48e-07 8.23e-09  1.61e-03   799s
  35   5.08645852e+07  5.08629500e+07  3.86e-07 9.38e-09  9.53e-04   823s
  36   5.08638582e+07  5.08629827e+07  4.54e-07 1.62e-08  5.10e-04   848s
  37   5.08636129e+07  5.08630347e+07  6.33e-07 6.02e-09  3.37e-04   870s
  38   5.08635192e+07  5.08630404e+07  5.35e-07 7.65e-09  2.79e-04   890s
  39   5.08633508e+07  5.08630409e+07  3.59e-07 6.25e-09  1.81e-04   907s
  40   5.08632924e+07  5.08630463e+07  3.05e-07 1.41e-08  1.43e-04   924s
  41   5.08632223e+07  5.08630495e+07  2.38e-07 6.59e-09  1.01e-04   943s
  42   5.08631995e+07  5.08630537e+07  2.15e-07 6.53e-09  8.49e-05   964s
  43   5.08631464e+07  5.08630539e+07  4.07e-07 1.40e-08  5.39e-05   988s

Barrier solved model in 43 iterations and 987.66 seconds (921.23 work units)
Optimal objective 5.08631464e+07


Root crossover log...

  312410 DPushes remaining with DInf 3.0753325e-02               989s
  120971 DPushes remaining with DInf 1.4463435e+04               993s
   94698 DPushes remaining with DInf 2.0312100e+02               996s
   74107 DPushes remaining with DInf 2.0312100e+02              1001s
   61000 DPushes remaining with DInf 2.0312100e+02              1006s
   46736 DPushes remaining with DInf 2.0312100e+02              1011s
   39980 DPushes remaining with DInf 2.0312100e+02              1015s
   29360 DPushes remaining with DInf 2.0312100e+02              1021s
   22113 DPushes remaining with DInf 2.0312100e+02              1026s
   16585 DPushes remaining with DInf 2.0312100e+02              1031s
   14559 DPushes remaining with DInf 2.0312100e+02              1035s
   11838 DPushes remaining with DInf 2.0312100e+02              1040s
    9252 DPushes remaining with DInf 2.0312100e+02              1046s
    5576 DPushes remaining with DInf 2.0312100e+02              1051s
    2783 DPushes remaining with DInf 2.0312100e+02              1056s
     927 DPushes remaining with DInf 2.0312100e+02              1062s
       0 DPushes remaining with DInf 2.0312100e+02              1064s

  293000 PPushes remaining with PInf 6.6441606e-02              1064s
   38553 PPushes remaining with PInf 4.1637070e-01              1074s
   24860 PPushes remaining with PInf 3.4306341e-01              1076s
   16150 PPushes remaining with PInf 2.6545657e-01              1080s
    7550 PPushes remaining with PInf 2.3374426e-01              1087s
     850 PPushes remaining with PInf 2.1767802e-01              1091s
       0 PPushes remaining with PInf 1.7350803e-02              1094s

  Push phase complete: Pinf 1.7350803e-02, Dinf 2.5192853e+06   1094s


Root simplex log...

Iteration    Objective       Primal Inf.    Dual Inf.      Time
  420189    5.0863060e+07   0.000000e+00   2.519285e+06   1095s
  420646    5.0863059e+07   0.000000e+00   1.264157e+04   1097s
  422129    5.0863057e+07   0.000000e+00   0.000000e+00   1103s
  422129    5.0863057e+07   0.000000e+00   0.000000e+00   1106s
Waiting for other threads to finish...        1173s
Concurrent spin time: 89.31s

Solved with barrier

Root relaxation: objective 5.086306e+07, 422129 iterations, 1141.16 seconds (1021.52 work units)

    Nodes    |    Current Node    |     Objective Bounds      |     Work
 Expl Unexpl |  Obj  Depth IntInf | Incumbent    BestBd   Gap | It/Node Time

     0     0 5.0863e+07    0  477          - 5.0863e+07      -     - 1214s
     0     0 5.0897e+07    0  431          - 5.0897e+07      -     - 1306s
     0     0 5.0902e+07    0  420          - 5.0902e+07      -     - 1329s
     0     0 5.0903e+07    0  424          - 5.0903e+07      -     - 1333s
     0     0 5.0903e+07    0  424          - 5.0903e+07      -     - 1335s
     0     0 5.0903e+07    0  447          - 5.0903e+07      -     - 1337s
     0     0 5.0903e+07    0  447          - 5.0903e+07      -     - 1340s
     0     0 5.0912e+07    0  396          - 5.0912e+07      -     - 1365s
     0     0 5.0912e+07    0  371          - 5.0912e+07      -     - 1398s
     0     0 5.0912e+07    0  400          - 5.0912e+07      -     - 1402s
     0     0 5.0918e+07    0  377          - 5.0918e+07      -     - 1449s
     0     0 5.0918e+07    0  373          - 5.0918e+07      -     - 1472s
     0     0 5.0918e+07    0  373          - 5.0918e+07      -     - 1475s
     0     0 5.0921e+07    0  365          - 5.0921e+07      -     - 1515s
     0     0 5.0921e+07    0  368          - 5.0921e+07      -     - 1533s
     0     0 5.0921e+07    0  370          - 5.0921e+07      -     - 1536s
     0     0 5.0923e+07    0  323          - 5.0923e+07      -     - 1555s
     0     0 5.0923e+07    0  323          - 5.0923e+07      -     - 1576s
     0     0 5.0923e+07    0  324          - 5.0923e+07      -     - 1579s
     0     0 5.0927e+07    0  353          - 5.0927e+07      -     - 1598s
     0     0 5.0927e+07    0  349          - 5.0927e+07      -     - 1599s
     0     0 5.0927e+07    0  352          - 5.0927e+07      -     - 1626s
     0     0 5.0927e+07    0  352          - 5.0927e+07      -     - 1629s
     0     0 5.0929e+07    0  320          - 5.0929e+07      -     - 1648s
     0     0 5.0929e+07    0  320          - 5.0929e+07      -     - 1669s
     0     0 5.0929e+07    0  318          - 5.0929e+07      -     - 1672s
     0     0 5.0930e+07    0  318          - 5.0930e+07      -     - 1690s
     0     0 5.0930e+07    0  320          - 5.0930e+07      -     - 1708s
     0     0 5.0930e+07    0  320          - 5.0930e+07      -     - 1712s
     0     0 5.0930e+07    0  314          - 5.0930e+07      -     - 1728s
     0     0 5.0930e+07    0  314          - 5.0930e+07      -     - 1735s
     0     0 5.0931e+07    0  318          - 5.0931e+07      -     - 1751s
     0     0 5.0931e+07    0  320          - 5.0931e+07      -     - 1769s
     0     0 5.0931e+07    0  320          - 5.0931e+07      -     - 1772s
     0     0 5.0931e+07    0  321          - 5.0931e+07      -     - 1789s
     0     0 5.0932e+07    0  322          - 5.0932e+07      -     - 1801s
     0     0 5.0932e+07    0  320          - 5.0932e+07      -     - 1816s
     0     0 5.0932e+07    0  320          - 5.0932e+07      -     - 1820s
     0     0 5.0932e+07    0  326          - 5.0932e+07      -     - 1836s
     0     0 5.0932e+07    0  327          - 5.0932e+07      -     - 1867s
     0     0 5.0932e+07    0  327          - 5.0932e+07      -     - 1870s
     0     0 5.0933e+07    0  334          - 5.0933e+07      -     - 1886s
     0     0 5.0939e+07    0  330          - 5.0939e+07      -     - 1901s
     0     0 5.0939e+07    0  330          - 5.0939e+07      -     - 1929s
     0     0 5.0939e+07    0  330          - 5.0939e+07      -     - 1932s
     0     0 5.0940e+07    0  321          - 5.0940e+07      -     - 1946s
     0     0 5.0945e+07    0  322          - 5.0945e+07      -     - 1965s
     0     0 5.0948e+07    0  324          - 5.0948e+07      -     - 1993s
     0     0 5.0948e+07    0  315          - 5.0948e+07      -     - 2008s
     0     0 5.0956e+07    0  381          - 5.0956e+07      -     - 2024s
     0     0 5.0956e+07    0  381          - 5.0956e+07      -     - 2026s
     0     0 5.0956e+07    0  388          - 5.0956e+07      -     - 2056s
     0     0 5.0956e+07    0  388          - 5.0956e+07      -     - 2060s
     0     0 5.0956e+07    0  401          - 5.0956e+07      -     - 2075s
     0     0 5.0956e+07    0  402          - 5.0956e+07      -     - 2113s
     0     0 5.0956e+07    0  402          - 5.0956e+07      -     - 2116s
     0     0 5.0963e+07    0  372          - 5.0963e+07      -     - 2132s
     0     0 5.0963e+07    0  372          - 5.0963e+07      -     - 2146s
     0     0 5.0963e+07    0  375          - 5.0963e+07      -     - 2150s
     0     0 5.0963e+07    0  355          - 5.0963e+07      -     - 2166s
     0     0 5.0972e+07    0  360          - 5.0972e+07      -     - 2189s
     0     0 5.0972e+07    0  368          - 5.0972e+07      -     - 2205s
     0     0 5.0972e+07    0  368          - 5.0972e+07      -     - 2208s
     0     0 5.0972e+07    0  375          - 5.0972e+07      -     - 2224s
     0     0 5.0978e+07    0  376          - 5.0978e+07      -     - 2240s
     0     0 5.0978e+07    0  375          - 5.0978e+07      -     - 2256s
     0     0 5.0978e+07    0  371          - 5.0978e+07      -     - 2271s
     0     0 5.0982e+07    0  373          - 5.0982e+07      -     - 2289s
     0     0 5.0982e+07    0  373          - 5.0982e+07      -     - 2293s
     0     0 5.0983e+07    0  371          - 5.0983e+07      -     - 2307s
     0     0 5.0983e+07    0  371          - 5.0983e+07      -     - 2313s
     0     0 5.0983e+07    0  344          - 5.0983e+07      -     - 2338s
H    0     0                    1.188681e+10 5.0983e+07   100%     - 2340s
     0     0 5.0983e+07    0  344 1.1887e+10 5.0983e+07   100%     - 2349s
H    0     0                    1.047071e+10 5.0983e+07   100%     - 2489s
     0     2 5.0983e+07    0  345 1.0471e+10 5.0983e+07   100%     - 2522s
     1     4 5.2140e+07    1  374 1.0471e+10 5.0983e+07   100% 18902 2578s
     3     7 5.2143e+07    2  382 1.0471e+10 5.1000e+07   100%  6745 2658s
     7    12 5.2147e+07    3  388 1.0471e+10 5.1002e+07   100%  7053 2682s
    14    20 5.2453e+07    4  462 1.0471e+10 5.1005e+07   100%  3803 2711s
    22    28 5.2455e+07    5  449 1.0471e+10 5.1005e+07   100%  2750 2867s
    30    31 5.2458e+07    5  468 1.0471e+10 5.1011e+07   100%  4508 3024s
H   31    31                    1.047004e+10 5.1011e+07   100%  4363 3025s
H   34    31                    1.046972e+10 5.1011e+07   100%  4014 3025s
H   35    31                    1.046863e+10 5.1011e+07   100%  3906 3025s
    38    36 5.2456e+07    6  443 1.0469e+10 5.1011e+07   100%  3640 3043s
    46    41 5.2456e+07    6  448 1.0469e+10 5.1011e+07   100%  3046 3061s
    56    50 5.2456e+07    7  444 1.0469e+10 5.1011e+07   100%  2547 3082s
    69    53 5.2472e+07    9  420 1.0469e+10 5.1011e+07   100%  2090 3113s
    77    54 5.2472e+07   10  438 1.0469e+10 5.1011e+07   100%  1905 3141s
    90    55 5.2506e+07   12  368 1.0469e+10 5.1011e+07   100%  1661 3161s
   101    55 5.2525e+07   14  350 1.0469e+10 5.1011e+07   100%  1495 3313s
H  102    55                    1.044925e+10 5.1011e+07   100%  1481 3313s
H  104    55                    1.042340e+10 5.1011e+07   100%  1453 3313s
   112    57 5.2529e+07   16  359 1.0423e+10 5.1011e+07   100%  1361 3336s
   120    61 5.2531e+07   17  357 1.0423e+10 5.1011e+07   100%  1273 3361s
   134    72 5.2532e+07   19  352 1.0423e+10 5.1011e+07   100%  1144 3645s
   151    82 5.2534e+07   23  347 1.0423e+10 5.1011e+07   100%  1020 3673s
   166    98 5.2534e+07   25  349 1.0423e+10 5.1011e+07   100%   934 3707s
   192   105 5.2536e+07   29  355 1.0423e+10 5.1011e+07   100%   813 4087s
H  207   110                    1.040294e+10 5.1011e+07   100%   756 4223s
H  212   110                    1.038322e+10 5.1011e+07   100%   738 4223s
H  217   110                    1.038197e+10 5.1011e+07   100%   722 4223s
H  218   110                    1.037406e+10 5.1011e+07   100%   722 4223s
   225   121 5.2540e+07   36  348 1.0374e+10 5.1011e+07   100%   704 4259s
   254   127 5.2543e+07   38  347 1.0374e+10 5.1011e+07   100%   641 4296s
   272   140 5.2545e+07   40  338 1.0374e+10 5.1011e+07   100%   615 4331s
H  303   147                    4.215768e+08 5.1011e+07  87.9%   565 4407s
   319   164 5.2543e+07   43  344 4.2158e+08 5.1011e+07  87.9%   551 4450s
   354   187 5.2543e+07   47  183 4.2158e+08 5.1011e+07  87.9%   512 4521s
H  369   187                    1.962173e+08 5.1011e+07  74.0%   499 4521s
   381   231 5.2547e+07   51  170 1.9622e+08 5.1011e+07  74.0%   492 4570s
   430   262 5.2550e+07   59  166 1.9622e+08 5.1011e+07  74.0%   460 4615s
H  441   262                    5.211586e+07 5.1011e+07  2.12%   455 4615s

Cutting planes:
  Gomory: 55
  Implied bound: 318
  MIR: 275
  StrongCG: 2
  Flow cover: 817
  RLT: 55
  Relax-and-lift: 12

Explored 466 nodes (647103 simplex iterations) in 4616.14 seconds (4961.57 work units)
Thread count was 8 (of 80 available processors)

Solution count 10: 5.21159e+07 5.21159e+07 1.96217e+08 ... 1.04492e+10

Optimal solution found (tolerance 5.00e-02)
Best objective 5.211586034637e+07, best bound 5.101128689440e+07, gap 2.1195%

User-callback calls 1068376, time in user-callback 6.13 sec
